(set-info :min-time 40.861914656)
; Start decls (53)
(declare-fun b100 () (_ FloatingPoint 8 24))
(declare-fun b103 () (_ FloatingPoint 8 24))
(declare-fun b106 () (_ FloatingPoint 8 24))
(declare-fun b109 () (_ FloatingPoint 8 24))
(declare-fun b11 () (_ FloatingPoint 8 24))
(declare-fun b112 () (_ FloatingPoint 8 24))
(declare-fun b115 () (_ FloatingPoint 8 24))
(declare-fun b118 () (_ FloatingPoint 8 24))
(declare-fun b121 () (_ FloatingPoint 8 24))
(declare-fun b124 () (_ FloatingPoint 8 24))
(declare-fun b127 () (_ FloatingPoint 8 24))
(declare-fun b13 () (_ FloatingPoint 8 24))
(declare-fun b130 () (_ FloatingPoint 8 24))
(declare-fun b133 () (_ FloatingPoint 8 24))
(declare-fun b136 () (_ FloatingPoint 8 24))
(declare-fun b139 () (_ FloatingPoint 8 24))
(declare-fun b142 () (_ FloatingPoint 8 24))
(declare-fun b145 () (_ FloatingPoint 8 24))
(declare-fun b148 () (_ FloatingPoint 8 24))
(declare-fun b151 () (_ FloatingPoint 8 24))
(declare-fun b154 () (_ FloatingPoint 8 24))
(declare-fun b157 () (_ FloatingPoint 8 24))
(declare-fun b16 () (_ FloatingPoint 8 24))
(declare-fun b161 () (_ FloatingPoint 11 53))
(declare-fun b19 () (_ FloatingPoint 8 24))
(declare-fun b22 () (_ FloatingPoint 8 24))
(declare-fun b25 () (_ FloatingPoint 8 24))
(declare-fun b269 () (_ FloatingPoint 8 24))
(declare-fun b272 () (_ FloatingPoint 8 24))
(declare-fun b28 () (_ FloatingPoint 8 24))
(declare-fun b31 () (_ FloatingPoint 8 24))
(declare-fun b34 () (_ FloatingPoint 8 24))
(declare-fun b37 () (_ FloatingPoint 8 24))
(declare-fun b40 () (_ FloatingPoint 8 24))
(declare-fun b43 () (_ FloatingPoint 8 24))
(declare-fun b46 () (_ FloatingPoint 8 24))
(declare-fun b49 () (_ FloatingPoint 8 24))
(declare-fun b52 () (_ FloatingPoint 8 24))
(declare-fun b55 () (_ FloatingPoint 8 24))
(declare-fun b58 () (_ FloatingPoint 8 24))
(declare-fun b61 () (_ FloatingPoint 8 24))
(declare-fun b64 () (_ FloatingPoint 8 24))
(declare-fun b67 () (_ FloatingPoint 8 24))
(declare-fun b70 () (_ FloatingPoint 8 24))
(declare-fun b73 () (_ FloatingPoint 8 24))
(declare-fun b76 () (_ FloatingPoint 8 24))
(declare-fun b79 () (_ FloatingPoint 8 24))
(declare-fun b82 () (_ FloatingPoint 8 24))
(declare-fun b85 () (_ FloatingPoint 8 24))
(declare-fun b88 () (_ FloatingPoint 8 24))
(declare-fun b91 () (_ FloatingPoint 8 24))
(declare-fun b94 () (_ FloatingPoint 8 24))
(declare-fun b97 () (_ FloatingPoint 8 24))
; End decls
; Start constraints (101)
(assert (fp.lt b269 b11))
(assert (let ((a!1 (fp.mul roundNearestTiesToEven
                   (fp.mul roundNearestTiesToEven
                           (fp.mul roundNearestTiesToEven
                                   (fp.mul roundNearestTiesToEven b11 b13)
                                   b16)
                           b19)
                   b22)))
(let ((a!2 (fp.mul roundNearestTiesToEven
                   (fp.mul roundNearestTiesToEven
                           (fp.mul roundNearestTiesToEven
                                   (fp.mul roundNearestTiesToEven a!1 b25)
                                   b28)
                           b31)
                   b34)))
(let ((a!3 (fp.mul roundNearestTiesToEven
                   (fp.mul roundNearestTiesToEven
                           (fp.mul roundNearestTiesToEven
                                   (fp.mul roundNearestTiesToEven a!2 b37)
                                   b40)
                           b43)
                   b46)))
(let ((a!4 (fp.mul roundNearestTiesToEven
                   (fp.mul roundNearestTiesToEven
                           (fp.mul roundNearestTiesToEven
                                   (fp.mul roundNearestTiesToEven a!3 b49)
                                   b52)
                           b55)
                   b58)))
(let ((a!5 (fp.mul roundNearestTiesToEven
                   (fp.mul roundNearestTiesToEven
                           (fp.mul roundNearestTiesToEven
                                   (fp.mul roundNearestTiesToEven a!4 b61)
                                   b64)
                           b67)
                   b70)))
(let ((a!6 (fp.mul roundNearestTiesToEven
                   (fp.mul roundNearestTiesToEven
                           (fp.mul roundNearestTiesToEven
                                   (fp.mul roundNearestTiesToEven a!5 b73)
                                   b76)
                           b79)
                   b82)))
(let ((a!7 (fp.mul roundNearestTiesToEven
                   (fp.mul roundNearestTiesToEven
                           (fp.mul roundNearestTiesToEven
                                   (fp.mul roundNearestTiesToEven a!6 b85)
                                   b88)
                           b91)
                   b94)))
(let ((a!8 (fp.mul roundNearestTiesToEven
                   (fp.mul roundNearestTiesToEven
                           (fp.mul roundNearestTiesToEven
                                   (fp.mul roundNearestTiesToEven a!7 b97)
                                   b100)
                           b103)
                   b106)))
(let ((a!9 (fp.mul roundNearestTiesToEven
                   (fp.mul roundNearestTiesToEven
                           (fp.mul roundNearestTiesToEven
                                   (fp.mul roundNearestTiesToEven a!8 b109)
                                   b112)
                           b115)
                   b118)))
(let ((a!10 (fp.mul roundNearestTiesToEven
                    (fp.mul roundNearestTiesToEven
                            (fp.mul roundNearestTiesToEven
                                    (fp.mul roundNearestTiesToEven a!9 b121)
                                    b124)
                            b127)
                    b130)))
(let ((a!11 (fp.mul roundNearestTiesToEven
                    (fp.mul roundNearestTiesToEven
                            (fp.mul roundNearestTiesToEven
                                    (fp.mul roundNearestTiesToEven a!10 b133)
                                    b136)
                            b139)
                    b142)))
(let ((a!12 (fp.mul roundNearestTiesToEven
                    (fp.mul roundNearestTiesToEven
                            (fp.mul roundNearestTiesToEven
                                    (fp.mul roundNearestTiesToEven a!11 b145)
                                    b148)
                            b151)
                    b154)))
  (fp.lt b161
         ((_ to_fp 11 53)
           roundNearestTiesToEven
           (fp.mul roundNearestTiesToEven a!12 b157))))))))))))))))
(assert (fp.lt b11 b272))
(assert (fp.lt b269 b13))
(assert (fp.lt b13 b272))
(assert (fp.lt b269 b16))
(assert (fp.lt b16 b272))
(assert (fp.lt b269 b19))
(assert (fp.lt b19 b272))
(assert (fp.lt b269 b22))
(assert (fp.lt b22 b272))
(assert (fp.lt b269 b25))
(assert (fp.lt b25 b272))
(assert (fp.lt b269 b28))
(assert (fp.lt b28 b272))
(assert (fp.lt b269 b31))
(assert (fp.lt b31 b272))
(assert (fp.lt b269 b34))
(assert (fp.lt b34 b272))
(assert (fp.lt b269 b37))
(assert (fp.lt b37 b272))
(assert (fp.lt b269 b40))
(assert (fp.lt b40 b272))
(assert (fp.lt b269 b43))
(assert (fp.lt b43 b272))
(assert (fp.lt b269 b46))
(assert (fp.lt b46 b272))
(assert (fp.lt b269 b49))
(assert (fp.lt b49 b272))
(assert (fp.lt b269 b52))
(assert (fp.lt b52 b272))
(assert (fp.lt b269 b55))
(assert (fp.lt b55 b272))
(assert (fp.lt b269 b58))
(assert (fp.lt b58 b272))
(assert (fp.lt b269 b61))
(assert (fp.lt b61 b272))
(assert (fp.lt b269 b64))
(assert (fp.lt b64 b272))
(assert (fp.lt b269 b67))
(assert (fp.lt b67 b272))
(assert (fp.lt b269 b70))
(assert (fp.lt b70 b272))
(assert (fp.lt b269 b73))
(assert (fp.lt b73 b272))
(assert (fp.lt b269 b76))
(assert (fp.lt b76 b272))
(assert (fp.lt b269 b79))
(assert (fp.lt b79 b272))
(assert (fp.lt b269 b82))
(assert (fp.lt b82 b272))
(assert (fp.lt b269 b85))
(assert (fp.lt b85 b272))
(assert (fp.lt b269 b88))
(assert (fp.lt b88 b272))
(assert (fp.lt b269 b91))
(assert (fp.lt b91 b272))
(assert (fp.lt b269 b94))
(assert (fp.lt b94 b272))
(assert (fp.lt b269 b97))
(assert (fp.lt b97 b272))
(assert (fp.lt b269 b100))
(assert (fp.lt b100 b272))
(assert (fp.lt b269 b103))
(assert (fp.lt b103 b272))
(assert (fp.lt b269 b106))
(assert (fp.lt b106 b272))
(assert (fp.lt b269 b109))
(assert (fp.lt b109 b272))
(assert (fp.lt b269 b112))
(assert (fp.lt b112 b272))
(assert (fp.lt b269 b115))
(assert (fp.lt b115 b272))
(assert (fp.lt b269 b118))
(assert (fp.lt b118 b272))
(assert (fp.lt b269 b121))
(assert (fp.lt b121 b272))
(assert (fp.lt b269 b124))
(assert (fp.lt b124 b272))
(assert (fp.lt b269 b127))
(assert (fp.lt b127 b272))
(assert (fp.lt b269 b130))
(assert (fp.lt b130 b272))
(assert (fp.lt b269 b133))
(assert (fp.lt b133 b272))
(assert (fp.lt b269 b136))
(assert (fp.lt b136 b272))
(assert (fp.lt b269 b139))
(assert (fp.lt b139 b272))
(assert (fp.lt b269 b142))
(assert (fp.lt b142 b272))
(assert (fp.lt b269 b145))
(assert (fp.lt b145 b272))
(assert (fp.lt b269 b148))
(assert (fp.lt b148 b272))
(assert (fp.lt b269 b151))
(assert (fp.lt b151 b272))
(assert (fp.lt b269 b154))
(assert (fp.lt b154 b272))
(assert (fp.lt b269 b157))
(assert (fp.lt b157 b272))
; End constraints
(check-sat)
